tsp_instances/TSP50/instance108.tsp
NODE_COORD_SECTION
0 117 185
1 133 45
2 152 144
3 54 114
4 77 163
5 80 68
6 146 41
7 197 24
8 191 114
9 8 175
10 35 92
11 123 66
12 30 81
13 161 102
14 64 118
15 178 56
16 104 65
17 73 198
18 177 1
19 38 66
20 75 20
21 146 150
22 85 61
23 115 88
24 78 116
25 171 125
26 45 182
27 0 33
28 179 73
29 190 141
30 154 130
31 100 158
32 200 150
33 61 183
34 131 44
35 87 171
36 0 153
37 60 178
38 82 146
39 60 149
40 181 87
41 43 197
42 73 104
43 3 197
44 163 55
45 188 21
46 57 131
47 104 197
48 18 143
49 147 16
