tsp_instances/TSP50/instance108.opt.tour
TOUR_SECTION
1
22
3
31
26
30
33
9
14
41
29
45
16
8
46
19
50
7
2
35
12
24
17
6
23
21
28
20
13
11
4
15
43
25
39
32
36
5
40
47
49
37
10
44
42
27
38
34
18
48
-1